NAME          
ROWS
 N  OBJ
 L  c1
 L  c2
 L  c3
 L  c4
COLUMNS
    MARKER    'MARKER'                 'INTORG'
    x[1]      c1        647
    x[1]      c2        999
    x[1]      c3        23
    x[1]      c4        636
    x[1]      OBJ       -919
    x[2]      c1        792
    x[2]      c2        427
    x[2]      c3        610
    x[2]      c4        821
    x[2]      OBJ       -252
    x[3]      c1        922
    x[3]      c2        888
    x[3]      c3        225
    x[3]      c4        775
    x[3]      OBJ       -125
    x[4]      c1        579
    x[4]      c2        831
    x[4]      c3        897
    x[4]      c4        555
    x[4]      OBJ       -11
    x[5]      c1        886
    x[5]      c2        611
    x[5]      c3        550
    x[5]      c4        477
    x[5]      OBJ       -878
    x[6]      c1        284
    x[6]      c2        47
    x[6]      c3        72
    x[6]      c4        403
    x[6]      OBJ       -913
    x[7]      c1        339
    x[7]      c2        911
    x[7]      c3        939
    x[7]      c4        770
    x[7]      OBJ       -793
    x[8]      c1        638
    x[8]      c2        825
    x[8]      c3        169
    x[8]      c4        979
    x[8]      OBJ       -562
    x[9]      c1        856
    x[9]      c2        891
    x[9]      c3        157
    x[9]      c4        577
    x[9]      OBJ       -16
    x[10]     c1        698
    x[10]     c2        900
    x[10]     c3        842
    x[10]     c4        109
    x[10]     OBJ       -381
    x[11]     c1        799
    x[11]     c2        197
    x[11]     c3        735
    x[11]     c4        261
    x[11]     OBJ       -347
    x[12]     c1        631
    x[12]     c2        65
    x[12]     c3        966
    x[12]     c4        490
    x[12]     OBJ       -990
    x[13]     c1        746
    x[13]     c2        945
    x[13]     c3        71
    x[13]     c4        1000
    x[13]     OBJ       -998
    x[14]     c1        802
    x[14]     c2        109
    x[14]     c3        758
    x[14]     c4        402
    x[14]     OBJ       -840
    x[15]     c1        979
    x[15]     c2        931
    x[15]     c3        898
    x[15]     c4        420
    x[15]     OBJ       -315
RHS
    rhs       c1        5299
    rhs       c2        4788
    rhs       c3        3956
    rhs       c4        4338
RANGES
BOUNDS
 BV bounds    x[1]
 BV bounds    x[2]
 BV bounds    x[3]
 BV bounds    x[4]
 BV bounds    x[5]
 BV bounds    x[6]
 BV bounds    x[7]
 BV bounds    x[8]
 BV bounds    x[9]
 BV bounds    x[10]
 BV bounds    x[11]
 BV bounds    x[12]
 BV bounds    x[13]
 BV bounds    x[14]
 BV bounds    x[15]
ENDATA
